GLPSOL--GLPK LP/MIP Solver 5.0
Parameter(s) specified in the command line:
 --lp ../modeles/15_249.lp --log 15_249.log
Reading problem data from '../modeles/15_249.lp'...
3796 rows, 7500 columns, 26220 non-zeros
3735 integer variables, all of which are binary
11317 lines were read
GLPK Integer Optimizer 5.0
3796 rows, 7500 columns, 26220 non-zeros
3735 integer variables, all of which are binary
Preprocessing...
3690 constraint coefficient(s) were reduced
3796 rows, 7485 columns, 26205 non-zeros
3735 integer variables, all of which are binary
Scaling...
 A: min|aij| =  6.452e-05  max|aij| =  4.000e+00  ratio =  6.200e+04
GM: min|aij| =  6.337e-02  max|aij| =  1.578e+01  ratio =  2.490e+02
EQ: min|aij| =  4.016e-03  max|aij| =  1.000e+00  ratio =  2.490e+02
2N: min|aij| =  3.906e-03  max|aij| =  1.773e+00  ratio =  4.539e+02
Constructing initial basis...
Size of triangular part is 3796
Solving LP relaxation...
GLPK Simplex Optimizer 5.0
3796 rows, 7485 columns, 26205 non-zeros
      0: obj =   3.000000000e+01 inf =   7.450e+01 (31)
    224: obj =   4.995241935e-01 inf =   0.000e+00 (0)
*   800: obj =  -3.871140813e+00 inf =   5.225e-15 (0)
OPTIMAL LP SOLUTION FOUND
Integer optimization begins...
Long-step dual simplex will be used
+   800: mip =     not found yet >=              -inf        (1; 0)
+  1157: >>>>>  -3.871140813e+00 >=  -3.871140813e+00 < 0.1% (353; 0)
+  1157: mip =  -3.871140813e+00 >=     tree is empty   0.0% (0; 705)
INTEGER OPTIMAL SOLUTION FOUND
Time used:   2.9 secs
Memory used: 11.0 Mb (11539125 bytes)
